c Result of efficient AIG-to-CNF conversion using package CNF
p cnf 320 1088
-2 3 225 241 250 0
2 -250 0
2 -3 0
2 -241 0
2 -225 0
-3 4 190 202 203 0
3 -203 0
3 -4 0
3 -190 0
3 -202 0
-4 5 75 151 0
-4 5 89 151 0
4 -5 0
4 -151 0
4 -75 -89 0
5 -260 317 -6 0
5 -260 -6 30 0
-5 260 0
-5 6 0
-5 -317 -30 0
6 -316 7 -25 0
6 316 7 -18 0
-6 -7 0
-6 -316 25 0
-6 316 18 0
-7 8 10 12 0
7 -8 0
7 -10 0
7 -12 0
-8 295 298 300 9 0
8 -9 0
8 -300 0
8 -295 0
8 -298 0
-9 296 297 299 0
9 -296 0
9 -299 0
9 -297 0
-10 292 293 294 11 0
10 -11 0
10 -294 0
10 -292 0
10 -293 0
-11 289 290 291 0
11 -289 0
11 -291 0
11 -290 0
-12 315 13 14 0
12 -14 0
12 -13 0
12 -315 0
-13 301 302 303 0
13 -301 0
13 -303 0
13 -302 0
-14 312 313 15 16 0
14 -312 0
14 -16 0
14 -15 0
14 -313 0
-15 308 309 314 0
15 -308 0
15 -314 0
15 -309 0
-16 305 306 307 17 0
16 -17 0
16 -307 0
16 -305 0
16 -306 0
-17 304 310 311 0
17 -304 0
17 -311 0
17 -310 0
-18 317 19 0
-18 -317 22 0
18 -317 -22 0
18 317 -19 0
-19 -318 20 0
-19 318 21 0
19 318 -21 0
19 -318 -20 0
-20 296 319 0
-20 298 -319 0
20 -298 -319 0
20 -296 319 0
-21 292 319 0
-21 294 -319 0
21 -294 -319 0
21 -292 319 0
22 -318 -24 0
22 318 -23 0
-22 318 23 0
-22 -318 24 0
-23 300 319 0
-23 302 -319 0
23 -302 -319 0
23 -300 319 0
-24 304 319 0
-24 306 -319 0
24 -306 -319 0
24 -304 319 0
25 317 -26 0
25 -317 -29 0
-25 -317 29 0
-25 317 26 0
26 -318 -28 0
26 318 -27 0
-26 318 27 0
-26 -318 28 0
-27 308 319 0
-27 310 -319 0
27 -310 -319 0
27 -308 319 0
-28 312 319 0
-28 314 -319 0
28 -314 -319 0
28 -312 319 0
29 -316 318 319 0
-29 316 0
-29 -319 0
-29 -318 0
30 318 -31 0
30 -318 -61 0
-30 -318 61 0
-30 318 31 0
31 -319 48 0
31 32 -35 48 0
-31 -48 0
-31 319 35 0
-31 319 -32 0
-32 315 33 0
32 -315 0
32 -33 0
-33 288 10 14 34 0
33 -288 0
33 -34 0
33 -14 0
33 -10 0
-34 301 302 303 8 0
34 -8 0
34 -303 0
34 -301 0
34 -302 0
35 316 -36 0
35 -316 -43 0
-35 -316 43 0
-35 316 36 0
36 317 -37 0
36 -317 -40 0
-36 -317 40 0
-36 317 37 0
37 -318 -39 0
37 318 -38 0
-37 318 38 0
-37 -318 39 0
-38 304 319 0
-38 305 -319 0
38 -305 -319 0
38 -304 319 0
-39 306 319 0
-39 307 -319 0
39 -307 -319 0
39 -306 319 0
40 -318 -42 0
40 318 -41 0
-40 318 41 0
-40 -318 42 0
-41 308 319 0
-41 309 -319 0
41 -309 -319 0
41 -308 319 0
-42 310 319 0
-42 311 -319 0
42 -311 -319 0
42 -310 319 0
43 317 -44 0
43 -317 -47 0
-43 -317 47 0
-43 317 44 0
44 -318 -46 0
44 318 -45 0
-44 318 45 0
-44 -318 46 0
-45 312 319 0
-45 313 -319 0
45 -313 -319 0
45 -312 319 0
-46 314 319 0
-46 315 -319 0
46 -315 -319 0
46 -314 319 0
-47 317 318 -319 0
-47 316 318 319 0
47 -318 0
47 -316 319 0
47 -317 -319 0
48 -319 49 0
-48 319 0
-48 -49 0
49 -316 32 -57 0
49 316 32 -50 0
-49 -32 0
-49 -316 57 0
-49 316 50 0
50 317 -51 0
50 -317 -54 0
-50 -317 54 0
-50 317 51 0
51 -318 -53 0
51 318 -52 0
-51 318 52 0
-51 -318 53 0
-52 305 319 0
-52 306 -319 0
52 -306 -319 0
52 -305 319 0
-53 307 319 0
-53 308 -319 0
53 -308 -319 0
53 -307 319 0
54 -318 -56 0
54 318 -55 0
-54 318 55 0
-54 -318 56 0
-55 309 319 0
-55 310 -319 0
55 -310 -319 0
55 -309 319 0
-56 311 319 0
-56 312 -319 0
56 -312 -319 0
56 -311 319 0
57 317 -58 0
57 -317 318 319 0
-57 -317 -318 0
-57 317 58 0
-57 -317 -319 0
58 -318 -60 0
58 318 -59 0
-58 318 59 0
-58 -318 60 0
-59 313 319 0
-59 314 -319 0
59 -314 -319 0
59 -313 319 0
-60 315 319 0
-60 316 -319 0
60 -316 -319 0
60 -315 319 0
61 319 -62 0
61 -319 32 -69 0
-61 -319 69 0
-61 319 62 0
-61 -319 -32 0
62 32 -63 0
-62 -32 0
-62 63 0
63 -316 -66 0
63 316 -64 65 0
-63 316 64 0
-63 -316 66 0
-63 316 -65 0
-64 317 -318 41 0
-64 317 318 39 0
64 -317 0
64 -318 -41 0
64 318 -39 0
65 -317 -318 45 0
65 -317 318 42 0
-65 317 0
-65 -318 -45 0
-65 318 -42 0
66 317 -67 0
66 -317 318 -319 0
-66 -317 -318 0
-66 317 67 0
-66 -317 319 0
67 -318 -68 0
67 318 -46 0
-67 318 46 0
-67 -318 68 0
-68 316 319 0
-68 317 -319 0
68 -317 -319 0
68 -316 319 0
69 316 -70 0
69 -316 -73 0
-69 -316 73 0
-69 316 70 0
70 317 -71 0
70 -317 -72 0
-70 -317 72 0
-70 317 71 0
71 -318 -55 0
71 318 -53 0
-71 318 53 0
-71 -318 55 0
72 -318 -59 0
72 318 -56 0
-72 318 56 0
-72 -318 59 0
73 317 -74 0
-73 -317 0
-73 74 0
-74 318 60 0
-74 317 -318 319 0
74 318 -60 0
74 -318 -319 0
74 -317 -318 0
75 -316 7 -83 0
75 316 7 -76 0
-75 -7 0
-75 -316 83 0
-75 316 76 0
-76 -317 79 0
-76 317 77 78 0
76 317 -77 0
76 -317 -79 0
76 317 -78 0
77 -290 318 319 0
77 -292 318 -319 0
-77 -318 0
-77 292 -319 0
-77 290 319 0
78 -294 -318 319 0
78 -296 -318 -319 0
-78 318 0
-78 296 -319 0
-78 294 319 0
79 -318 -81 0
79 318 -80 0
79 -318 -82 0
-79 318 80 0
-79 -318 81 82 0
-80 298 319 0
-80 300 -319 0
80 -300 -319 0
80 -298 319 0
81 -302 319 0
-81 302 0
-81 -319 0
82 -304 -319 0
-82 304 0
-82 319 0
83 317 -84 0
83 -317 -88 0
-83 -317 88 0
-83 317 84 0
84 -318 -85 0
84 318 -87 0
84 -318 -86 0
-84 318 87 0
-84 -318 85 86 0
85 -310 319 0
-85 310 0
-85 -319 0
86 -312 -319 0
-86 312 0
-86 319 0
-87 306 319 0
-87 308 -319 0
87 -308 -319 0
87 -306 319 0
88 -314 319 0
88 -318 319 0
88 -316 318 -319 0
-88 316 -319 0
-88 -318 -319 0
-88 314 318 319 0
89 -258 -32 0
89 -258 315 90 0
-89 258 0
-89 -315 32 0
-89 32 -90 0
90 316 -91 0
90 -316 -141 146 0
-90 -316 141 0
-90 316 91 0
-90 -316 -146 0
91 317 -92 0
91 -317 -133 139 0
-91 -317 133 0
-91 317 92 0
-91 -317 -139 0
92 318 -93 0
92 -318 319 -124 0
-92 -318 -319 0
-92 318 93 0
-92 -318 124 0
93 319 33 -94 0
93 -319 33 -109 0
-93 -33 0
-93 -319 109 0
-93 319 94 0
-94 -315 63 0
-94 315 95 103 0
94 -315 -63 0
94 315 -103 0
94 315 -95 0
95 316 -317 -100 0
95 316 317 -96 0
-95 -316 0
-95 -317 100 0
-95 317 96 0
-96 -318 99 0
-96 318 97 98 0
96 318 -97 0
96 -318 -99 0
96 318 -98 0
97 -290 319 0
-97 290 0
-97 -319 0
98 -291 -319 0
-98 291 0
-98 319 0
-99 292 319 0
-99 293 -319 0
99 -293 -319 0
99 -292 319 0
100 -318 -102 0
100 318 -101 0
-100 318 101 0
-100 -318 102 0
-101 294 319 0
-101 295 -319 0
101 -295 -319 0
101 -294 319 0
-102 296 319 0
-102 297 -319 0
102 -297 -319 0
102 -296 319 0
103 -316 -317 -107 0
103 -316 317 -104 0
-103 316 0
-103 -317 107 0
-103 317 104 0
104 -318 -106 0
104 318 -105 0
-104 318 105 0
-104 -318 106 0
-105 298 319 0
-105 299 -319 0
105 -299 -319 0
105 -298 319 0
-106 300 319 0
-106 301 -319 0
106 -301 -319 0
106 -300 319 0
107 318 -108 0
107 -318 -38 0
-107 -318 38 0
-107 318 108 0
-108 302 319 0
-108 303 -319 0
108 -303 -319 0
108 -302 319 0
-109 -315 69 0
-109 315 110 118 0
109 -315 -69 0
109 315 -118 0
109 315 -110 0
110 316 -317 -115 0
110 316 317 -111 0
-110 -316 0
-110 -317 115 0
-110 317 111 0
-111 -318 113 0
-111 318 112 114 0
111 318 -112 0
111 -318 -113 0
111 318 -114 0
112 -292 -319 0
-112 292 0
-112 319 0
-113 293 319 0
-113 294 -319 0
113 -294 -319 0
113 -293 319 0
114 -291 319 0
-114 291 0
-114 -319 0
115 -318 -117 0
115 318 -116 0
-115 318 116 0
-115 -318 117 0
-116 295 319 0
-116 296 -319 0
116 -296 -319 0
116 -295 319 0
-117 297 319 0
-117 298 -319 0
117 -298 -319 0
117 -297 319 0
118 -316 -317 -122 0
118 -316 317 -119 0
-118 316 0
-118 -317 122 0
-118 317 119 0
119 -318 -121 0
119 318 -120 0
-119 318 120 0
-119 -318 121 0
-120 299 319 0
-120 300 -319 0
120 -300 -319 0
120 -299 319 0
-121 301 319 0
-121 302 -319 0
121 -302 -319 0
121 -301 319 0
122 318 -123 0
122 -318 -52 0
-122 -318 52 0
-122 318 123 0
-123 303 319 0
-123 304 -319 0
123 -304 -319 0
123 -303 319 0
124 -315 33 -130 0
124 315 33 -125 0
-124 -33 0
-124 -315 130 0
-124 315 125 0
-125 -316 128 0
-125 316 126 127 0
125 316 -126 0
125 -316 -128 0
125 316 -127 0
126 -317 -318 -105 0
126 -317 318 -102 0
-126 317 0
-126 -318 105 0
-126 318 102 0
127 317 -318 -101 0
127 317 318 -99 0
-127 -317 0
-127 -318 101 0
-127 318 99 0
128 -317 -37 0
128 317 -129 0
-128 317 129 0
-128 -317 37 0
129 -318 -108 0
129 318 -106 0
-129 318 106 0
-129 -318 108 0
130 316 -131 0
130 -316 -132 0
-130 -316 132 0
-130 316 131 0
131 317 -40 0
131 -317 -44 0
-131 -317 44 0
-131 317 40 0
132 317 -318 0
132 -316 317 319 0
-132 -317 0
-132 318 -319 0
-132 316 318 0
-133 315 -316 137 0
-133 315 316 134 0
133 -315 0
133 -316 -137 0
133 316 -134 0
134 317 -135 0
134 -317 -136 0
-134 -317 136 0
-134 317 135 0
135 -318 -116 0
135 318 -113 0
-135 318 113 0
-135 -318 116 0
136 -318 -120 0
136 318 -117 0
-136 318 117 0
-136 -318 120 0
137 -317 -51 0
137 317 -138 0
-137 317 138 0
-137 -317 51 0
138 -318 -123 0
138 318 -121 0
-138 318 121 0
-138 -318 123 0
-139 315 33 0
-139 316 33 -140 0
139 -33 0
139 -315 140 0
139 -315 -316 0
140 317 -54 0
140 -317 -58 0
-140 -317 58 0
-140 317 54 0
-141 317 -319 145 0
-141 317 319 142 0
141 -317 0
141 -319 -145 0
141 319 -142 0
142 -315 33 -144 0
142 315 33 -143 0
-142 -33 0
-142 -315 144 0
-142 315 143 0
143 316 -128 0
143 -316 -131 0
-143 -316 131 0
-143 316 128 0
144 316 317 -318 0
-144 318 0
-144 -317 0
-144 -316 0
145 -316 32 -140 0
145 316 32 -137 0
-145 -32 0
-145 -316 140 0
-145 316 137 0
146 -317 147 0
146 -317 -318 31 0
-146 317 0
-146 318 -147 0
-146 -31 -147 0
-147 318 148 0
147 -318 0
147 -148 0
148 316 32 -150 0
148 -316 32 -149 0
-148 -32 0
-148 -316 149 0
-148 316 150 0
149 -317 -318 0
149 317 -72 0
149 -317 -60 0
-149 317 72 0
-149 -317 318 60 0
150 -317 -71 0
150 317 -122 0
-150 317 122 0
-150 -317 71 0
-151 152 157 164 171 0
151 -171 0
151 -164 0
151 -152 0
151 -157 0
152 -274 -319 -154 0
152 -274 153 -154 0
-152 154 0
-152 274 0
-152 319 -153 0
153 316 32 -43 0
-153 43 0
-153 -32 0
-153 -316 0
154 -83 155 0
-154 83 0
-154 -155 0
-155 10 156 0
155 -10 0
155 -156 0
-156 316 8 12 0
156 -12 0
156 -8 0
156 -316 0
157 -273 155 -158 163 0
-157 158 0
-157 -163 0
-157 273 0
-157 -155 0
158 -317 -318 0
158 317 -159 0
158 -317 -162 0
-158 317 159 0
-158 -317 318 162 0
159 -318 -161 0
159 318 -160 0
-159 318 160 0
-159 -318 161 0
-160 305 319 0
-160 307 -319 0
160 -307 -319 0
160 -305 319 0
-161 309 319 0
-161 311 -319 0
161 -311 -319 0
161 -309 319 0
-162 313 319 0
-162 315 -319 0
162 -315 -319 0
162 -313 319 0
163 316 32 -149 0
-163 149 0
-163 -32 0
-163 -316 0
164 -275 155 165 -166 0
-164 166 0
-164 275 0
-164 -155 0
-164 -165 0
165 316 32 -66 0
-165 66 0
-165 -32 0
-165 -316 0
166 317 -167 0
166 -317 318 -170 0
-166 -317 -318 0
-166 317 167 0
-166 -317 170 0
167 -318 -169 0
167 318 -168 0
-167 318 168 0
-167 -318 169 0
-168 307 319 0
-168 309 -319 0
168 -309 -319 0
168 -307 319 0
-169 311 319 0
-169 313 -319 0
169 -313 -319 0
169 -311 319 0
-170 315 319 0
-170 317 -319 0
170 -317 -319 0
170 -315 319 0
-171 -172 173 0
-171 173 182 0
-171 257 173 0
171 -173 0
171 -257 172 -182 0
172 -318 -148 0
-172 318 0
-172 148 0
173 -256 7 172 -174 0
-173 -7 0
-173 174 0
-173 256 0
-173 -172 0
-174 316 175 0
-174 -316 179 0
174 -316 -179 0
174 316 -175 0
-175 317 176 0
-175 -317 178 0
175 -317 -178 0
175 317 -176 0
-176 -318 21 0
-176 318 177 0
176 318 -177 0
176 -318 -21 0
-177 288 319 0
-177 290 -319 0
177 -290 -319 0
177 -288 319 0
178 -318 -23 0
178 318 -20 0
-178 318 20 0
-178 -318 23 0
179 317 -180 0
179 -317 -181 0
-179 -317 181 0
-179 317 180 0
180 -318 -27 0
180 318 -24 0
-180 318 24 0
-180 -318 27 0
181 318 -28 0
181 -318 -319 0
181 -316 -318 0
-181 318 28 0
-181 316 -318 319 0
182 316 7 -183 0
182 -316 7 -158 0
-182 -7 0
-182 316 183 0
-182 -316 158 0
-183 317 184 0
-183 -317 187 0
183 -317 -187 0
183 317 -184 0
-184 318 185 0
-184 -318 186 0
184 -318 -186 0
184 318 -185 0
-185 289 319 0
-185 291 -319 0
185 -291 -319 0
185 -289 319 0
-186 293 319 0
-186 295 -319 0
186 -295 -319 0
186 -293 319 0
187 -318 -189 0
187 318 -188 0
-187 318 188 0
-187 -318 189 0
-188 297 319 0
-188 299 -319 0
188 -299 -319 0
188 -297 319 0
-189 301 319 0
-189 303 -319 0
189 -303 -319 0
189 -301 319 0
-190 191 199 0
-190 317 191 -197 0
190 -191 0
190 -317 -199 0
190 197 -199 0
191 -265 -192 196 0
-191 265 0
-191 192 0
-191 -196 0
192 -316 7 -194 0
192 316 7 -193 0
-192 -7 0
-192 -316 194 0
-192 316 193 0
-193 317 187 0
-193 -317 159 0
193 -317 -159 0
193 317 -187 0
194 317 -195 0
-194 -317 0
-194 195 0
-195 318 162 0
-195 317 -318 319 0
195 318 -162 0
195 -318 -319 0
195 -317 -318 0
196 -319 48 0
-196 319 0
-196 -48 0
197 318 -198 0
197 -318 -319 -163 0
-197 -318 319 0
-197 318 198 0
-197 -318 163 0
198 319 32 -130 0
-198 130 0
-198 -32 0
-198 -319 0
199 -268 7 -200 0
-199 268 0
-199 -7 0
-199 200 0
-200 -316 -317 0
-200 317 201 0
-200 -317 26 0
200 317 -201 0
200 316 -317 -26 0
-201 -316 -318 0
-201 316 22 0
-201 -316 -319 0
201 316 -22 0
201 -316 318 319 0
202 -262 -192 196 0
-202 262 0
-202 192 0
-202 -196 0
-203 204 220 0
-203 204 -213 0
-203 269 204 0
203 -204 0
203 -269 213 -220 0
204 -259 -318 -205 0
204 -259 147 -205 0
-204 205 0
-204 259 0
-204 318 -147 0
205 316 7 -206 0
205 -316 7 -166 0
-205 -7 0
-205 316 206 0
-205 -316 166 0
-206 -317 209 0
-206 317 207 208 0
206 317 -207 0
206 -317 -209 0
206 317 -208 0
207 -291 318 319 0
207 -293 318 -319 0
-207 -318 0
-207 293 -319 0
-207 291 319 0
208 -295 -318 319 0
208 -297 -318 -319 0
-208 318 0
-208 297 -319 0
-208 295 319 0
209 318 -210 0
209 -318 -212 0
209 318 -211 0
-209 -318 212 0
-209 318 210 211 0
210 -301 -319 0
-210 301 0
-210 319 0
211 -299 319 0
-211 299 0
-211 -319 0
-212 303 319 0
-212 305 -319 0
212 -305 -319 0
212 -303 319 0
213 315 -316 -214 216 0
-213 316 0
-213 -216 0
-213 -315 0
-213 214 0
-214 317 215 0
-214 317 -318 153 0
214 -317 0
214 318 -215 0
214 -153 -215 0
-215 318 61 0
215 -318 0
215 -61 0
216 -317 318 218 0
216 -317 -318 217 0
-216 317 0
-216 -318 -217 0
-216 318 -218 0
217 316 32 -73 0
-217 73 0
-217 -32 0
-217 -316 0
218 -319 -165 0
218 319 32 -219 0
-218 -319 165 0
-218 319 -32 0
-218 319 219 0
219 316 -57 0
-219 -316 0
-219 57 0
220 316 7 -222 0
220 -316 7 -221 0
-220 -7 0
-220 316 222 0
-220 -316 221 0
221 317 318 -319 0
-221 319 0
-221 -318 0
-221 -317 0
-222 317 224 0
-222 -317 223 0
222 -317 -223 0
222 317 -224 0
223 -318 -162 0
223 318 -161 0
-223 318 161 0
-223 -318 162 0
224 318 -189 0
224 -318 -160 0
-224 -318 160 0
-224 318 189 0
-225 226 232 240 0
-225 226 232 237 0
225 -226 0
225 -232 0
225 -237 -240 0
226 319 49 -227 0
226 -319 62 -227 0
-226 227 0
-226 319 -49 0
-226 -319 -62 0
227 -261 7 -228 0
-227 261 0
-227 -7 0
-227 228 0
-228 316 229 0
-228 -316 231 0
228 -316 -231 0
228 316 -229 0
-229 -317 224 0
-229 317 230 0
229 -317 -224 0
229 317 -230 0
-230 318 186 0
-230 -318 188 0
230 -318 -188 0
230 318 -186 0
231 -317 318 0
231 317 -223 0
-231 -317 -318 0
-231 317 223 0
232 -264 233 -234 0
232 -264 316 -234 0
-232 234 0
-232 264 0
-232 -316 -233 0
233 317 -30 0
233 -317 -197 0
-233 -317 197 0
-233 317 30 0
234 -316 7 -236 0
234 316 7 -235 0
-234 -7 0
-234 -316 236 0
-234 316 235 0
-235 -317 180 0
-235 317 178 0
235 317 -178 0
235 -317 -180 0
236 317 -181 0
-236 -317 0
-236 181 0
237 -316 7 -239 0
237 316 7 -238 0
-237 -7 0
-237 -316 239 0
-237 316 238 0
-238 -317 84 0
-238 317 79 0
238 317 -79 0
238 -317 -84 0
239 317 -88 0
-239 -317 0
-239 88 0
240 -266 215 0
240 -266 -318 198 0
-240 266 0
-240 318 -215 0
-240 -198 -215 0
-241 -242 243 0
-241 243 247 0
-241 271 243 0
241 -243 0
241 -271 242 -247 0
242 -319 -163 0
-242 319 0
-242 163 0
-243 239 245 0
-243 244 245 0
-243 -155 245 0
243 -245 0
243 155 -239 -244 0
244 -282 -319 0
244 -282 144 0
244 -282 -32 0
-244 282 0
-244 319 32 -144 0
245 -280 217 -246 0
-245 280 0
-245 -217 0
-245 246 0
246 155 -236 0
-246 -155 0
-246 236 0
247 317 155 -249 0
247 -317 155 -248 0
-247 -155 0
-247 -317 248 0
-247 317 249 0
248 -318 -170 0
248 318 -169 0
-248 318 169 0
-248 -318 170 0
249 318 -212 0
249 -318 -168 0
-249 -318 168 0
-249 318 212 0
-250 272 251 0
-250 -242 251 0
-250 247 251 0
250 -251 0
250 -272 242 -247 0
-251 -10 252 255 0
-251 252 253 255 0
251 -255 0
251 -252 0
251 10 -253 0
252 -277 155 218 -231 0
-252 231 0
-252 277 0
-252 -155 0
-252 -218 0
253 -285 -254 0
-253 285 0
-253 254 0
254 -316 156 -221 0
254 -32 156 -221 0
-254 221 0
-254 -156 0
-254 316 32 0
255 -281 217 -246 0
-255 281 0
-255 -217 0
-255 246 0
-320 0
2 0

